p cnf 386 460
4 12 -8 21 22 0
4 12 -8 21 -22 0
4 12 -8 -21 23 0
4 12 -8 -21 -23 0
17 15 1 24 25 0
17 15 1 24 -25 0
17 15 1 -24 26 0
17 15 1 -24 -26 0
8 -17 -13 27 28 0
8 -17 -13 27 -28 0
8 -17 -13 -27 29 0
8 -17 -13 -27 -29 0
11 -18 13 30 31 0
11 -18 13 30 -31 0
11 -18 13 -30 32 0
11 -18 13 -30 -32 0
-13 -8 -12 33 34 0
-13 -8 -12 33 -34 0
-13 -8 -12 -33 35 0
-13 -8 -12 -33 -35 0
-5 -2 4 36 37 0
-5 -2 4 36 -37 0
-5 -2 4 -36 38 0
-5 -2 4 -36 -38 0
-5 -13 1 39 40 0
-5 -13 1 39 -40 0
-5 -13 1 -39 41 0
-5 -13 1 -39 -41 0
-2 -16 -20 42 43 0
-2 -16 -20 42 -43 0
-2 -16 -20 -42 44 0
-2 -16 -20 -42 -44 0
2 10 6 45 46 0
2 10 6 45 -46 0
2 10 6 -45 47 0
2 10 6 -45 -47 0
18 -20 14 48 49 0
18 -20 14 48 -49 0
18 -20 14 -48 50 0
18 -20 14 -48 -50 0
5 19 10 51 52 0
5 19 10 51 -52 0
5 19 10 -51 53 0
5 19 10 -51 -53 0
9 14 -19 54 55 0
9 14 -19 54 -55 0
9 14 -19 -54 56 0
9 14 -19 -54 -56 0
-17 -10 14 57 58 0
-17 -10 14 57 -58 0
-17 -10 14 -57 59 0
-17 -10 14 -57 -59 0
-9 1 15 60 61 0
-9 1 15 60 -61 0
-9 1 15 -60 62 0
-9 1 15 -60 -62 0
-20 -4 -2 63 64 0
-20 -4 -2 63 -64 0
-20 -4 -2 -63 65 0
-20 -4 -2 -63 -65 0
-2 18 14 66 67 0
-2 18 14 66 -67 0
-2 18 14 -66 68 0
-2 18 14 -66 -68 0
18 15 -16 69 70 0
18 15 -16 69 -70 0
18 15 -16 -69 71 0
18 15 -16 -69 -71 0
-1 -12 -7 72 73 0
-1 -12 -7 72 -73 0
-1 -12 -7 -72 74 0
-1 -12 -7 -72 -74 0
-5 -13 7 75 76 0
-5 -13 7 75 -76 0
-5 -13 7 -75 77 0
-5 -13 7 -75 -77 0
-19 -2 11 78 79 0
-19 -2 11 78 -79 0
-19 -2 11 -78 80 0
-19 -2 11 -78 -80 0
14 -12 20 81 82 0
14 -12 20 81 -82 0
14 -12 20 -81 83 0
14 -12 20 -81 -83 0
-2 -13 -16 84 85 0
-2 -13 -16 84 -85 0
-2 -13 -16 -84 86 0
-2 -13 -16 -84 -86 0
-12 -18 10 87 88 0
-12 -18 10 87 -88 0
-12 -18 10 -87 89 0
-12 -18 10 -87 -89 0
-10 -17 -14 90 91 0
-10 -17 -14 90 -91 0
-10 -17 -14 -90 92 0
-10 -17 -14 -90 -92 0
-6 14 13 93 94 0
-6 14 13 93 -94 0
-6 14 13 -93 95 0
-6 14 13 -93 -95 0
3 18 -19 96 97 0
3 18 -19 96 -97 0
3 18 -19 -96 98 0
3 18 -19 -96 -98 0
-3 4 10 99 100 0
-3 4 10 99 -100 0
-3 4 10 -99 101 0
-3 4 10 -99 -101 0
16 13 -3 102 103 0
16 13 -3 102 -103 0
16 13 -3 -102 104 0
16 13 -3 -102 -104 0
-7 -20 13 105 106 0
-7 -20 13 105 -106 0
-7 -20 13 -105 107 0
-7 -20 13 -105 -107 0
11 -2 1 108 109 0
11 -2 1 108 -109 0
11 -2 1 -108 110 0
11 -2 1 -108 -110 0
10 20 4 111 112 0
10 20 4 111 -112 0
10 20 4 -111 113 0
10 20 4 -111 -113 0
-5 4 -9 114 115 0
-5 4 -9 114 -115 0
-5 4 -9 -114 116 0
-5 4 -9 -114 -116 0
20 18 -3 117 118 0
20 18 -3 117 -118 0
20 18 -3 -117 119 0
20 18 -3 -117 -119 0
-18 11 12 120 121 0
-18 11 12 120 -121 0
-18 11 12 -120 122 0
-18 11 12 -120 -122 0
-18 1 9 123 124 0
-18 1 9 123 -124 0
-18 1 9 -123 125 0
-18 1 9 -123 -125 0
4 14 6 126 127 0
4 14 6 126 -127 0
4 14 6 -126 128 0
4 14 6 -126 -128 0
-12 -6 -1 129 130 0
-12 -6 -1 129 -130 0
-12 -6 -1 -129 131 0
-12 -6 -1 -129 -131 0
19 -11 13 132 133 0
19 -11 13 132 -133 0
19 -11 13 -132 134 0
19 -11 13 -132 -134 0
18 -5 17 135 136 0
18 -5 17 135 -136 0
18 -5 17 -135 137 0
18 -5 17 -135 -137 0
7 -16 -12 138 139 0
7 -16 -12 138 -139 0
7 -16 -12 -138 140 0
7 -16 -12 -138 -140 0
-9 -13 -4 141 142 0
-9 -13 -4 141 -142 0
-9 -13 -4 -141 143 0
-9 -13 -4 -141 -143 0
7 -19 -2 144 145 0
7 -19 -2 144 -145 0
7 -19 -2 -144 146 0
7 -19 -2 -144 -146 0
-19 -16 6 147 148 0
-19 -16 6 147 -148 0
-19 -16 6 -147 149 0
-19 -16 6 -147 -149 0
-17 14 -5 150 151 0
-17 14 -5 150 -151 0
-17 14 -5 -150 152 0
-17 14 -5 -150 -152 0
16 -9 -15 153 154 0
16 -9 -15 153 -154 0
16 -9 -15 -153 155 0
16 -9 -15 -153 -155 0
5 -1 -7 156 157 0
5 -1 -7 156 -157 0
5 -1 -7 -156 158 0
5 -1 -7 -156 -158 0
-19 -3 -1 159 160 0
-19 -3 -1 159 -160 0
-19 -3 -1 -159 161 0
-19 -3 -1 -159 -161 0
-9 12 1 162 163 0
-9 12 1 162 -163 0
-9 12 1 -162 164 0
-9 12 1 -162 -164 0
17 2 7 165 166 0
17 2 7 165 -166 0
17 2 7 -165 167 0
17 2 7 -165 -167 0
-4 12 -1 168 169 0
-4 12 -1 168 -169 0
-4 12 -1 -168 170 0
-4 12 -1 -168 -170 0
16 6 1 171 172 0
16 6 1 171 -172 0
16 6 1 -171 173 0
16 6 1 -171 -173 0
2 -4 -19 174 175 0
2 -4 -19 174 -175 0
2 -4 -19 -174 176 0
2 -4 -19 -174 -176 0
-17 3 -7 177 178 0
-17 3 -7 177 -178 0
-17 3 -7 -177 179 0
-17 3 -7 -177 -179 0
19 -17 -5 180 181 0
19 -17 -5 180 -181 0
19 -17 -5 -180 182 0
19 -17 -5 -180 -182 0
12 -3 16 183 184 0
12 -3 16 183 -184 0
12 -3 16 -183 185 0
12 -3 16 -183 -185 0
7 2 3 186 187 0
7 2 3 186 -187 0
7 2 3 -186 188 0
7 2 3 -186 -188 0
7 5 1 189 190 0
7 5 1 189 -190 0
7 5 1 -189 191 0
7 5 1 -189 -191 0
8 -19 6 192 193 0
8 -19 6 192 -193 0
8 -19 6 -192 194 0
8 -19 6 -192 -194 0
-19 -2 13 195 196 0
-19 -2 13 195 -196 0
-19 -2 13 -195 197 0
-19 -2 13 -195 -197 0
10 4 6 198 199 0
10 4 6 198 -199 0
10 4 6 -198 200 0
10 4 6 -198 -200 0
7 17 5 201 202 0
7 17 5 201 -202 0
7 17 5 -201 203 0
7 17 5 -201 -203 0
-15 -10 -12 204 205 0
-15 -10 -12 204 -205 0
-15 -10 -12 -204 206 0
-15 -10 -12 -204 -206 0
18 12 4 207 208 0
18 12 4 207 -208 0
18 12 4 -207 209 0
18 12 4 -207 -209 0
-19 11 1 210 211 0
-19 11 1 210 -211 0
-19 11 1 -210 212 0
-19 11 1 -210 -212 0
-7 -10 -13 213 214 0
-7 -10 -13 213 -214 0
-7 -10 -13 -213 215 0
-7 -10 -13 -213 -215 0
-12 18 8 216 217 0
-12 18 8 216 -217 0
-12 18 8 -216 218 0
-12 18 8 -216 -218 0
5 -17 -15 219 220 0
5 -17 -15 219 -220 0
5 -17 -15 -219 221 0
5 -17 -15 -219 -221 0
-2 18 -13 222 223 0
-2 18 -13 222 -223 0
-2 18 -13 -222 224 0
-2 18 -13 -222 -224 0
1 -7 -9 225 226 0
1 -7 -9 225 -226 0
1 -7 -9 -225 227 0
1 -7 -9 -225 -227 0
10 -20 7 228 229 0
10 -20 7 228 -229 0
10 -20 7 -228 230 0
10 -20 7 -228 -230 0
-18 -11 -13 231 232 0
-18 -11 -13 231 -232 0
-18 -11 -13 -231 233 0
-18 -11 -13 -231 -233 0
-18 13 12 234 235 0
-18 13 12 234 -235 0
-18 13 12 -234 236 0
-18 13 12 -234 -236 0
-5 -4 3 237 238 0
-5 -4 3 237 -238 0
-5 -4 3 -237 239 0
-5 -4 3 -237 -239 0
-9 15 -18 240 241 0
-9 15 -18 240 -241 0
-9 15 -18 -240 242 0
-9 15 -18 -240 -242 0
-8 -5 19 243 244 0
-8 -5 19 243 -244 0
-8 -5 19 -243 245 0
-8 -5 19 -243 -245 0
11 8 -17 246 247 0
11 8 -17 246 -247 0
11 8 -17 -246 248 0
11 8 -17 -246 -248 0
-20 -15 3 249 250 0
-20 -15 3 249 -250 0
-20 -15 3 -249 251 0
-20 -15 3 -249 -251 0
-16 -20 -10 252 253 0
-16 -20 -10 252 -253 0
-16 -20 -10 -252 254 0
-16 -20 -10 -252 -254 0
-3 8 -13 255 256 0
-3 8 -13 255 -256 0
-3 8 -13 -255 257 0
-3 8 -13 -255 -257 0
12 -2 -10 258 259 0
12 -2 -10 258 -259 0
12 -2 -10 -258 260 0
12 -2 -10 -258 -260 0
-15 6 10 261 262 0
-15 6 10 261 -262 0
-15 6 10 -261 263 0
-15 6 10 -261 -263 0
17 -3 -4 264 265 0
17 -3 -4 264 -265 0
17 -3 -4 -264 266 0
17 -3 -4 -264 -266 0
-5 -19 -1 267 268 0
-5 -19 -1 267 -268 0
-5 -19 -1 -267 269 0
-5 -19 -1 -267 -269 0
-20 19 11 270 271 0
-20 19 11 270 -271 0
-20 19 11 -270 272 0
-20 19 11 -270 -272 0
11 16 9 273 274 0
11 16 9 273 -274 0
11 16 9 -273 275 0
11 16 9 -273 -275 0
14 -16 13 276 277 0
14 -16 13 276 -277 0
14 -16 13 -276 278 0
14 -16 13 -276 -278 0
5 -9 4 279 280 0
5 -9 4 279 -280 0
5 -9 4 -279 281 0
5 -9 4 -279 -281 0
-19 -2 -1 282 283 0
-19 -2 -1 282 -283 0
-19 -2 -1 -282 284 0
-19 -2 -1 -282 -284 0
17 -19 -12 285 286 0
17 -19 -12 285 -286 0
17 -19 -12 -285 287 0
17 -19 -12 -285 -287 0
15 9 -11 288 289 0
15 9 -11 288 -289 0
15 9 -11 -288 290 0
15 9 -11 -288 -290 0
11 3 -6 291 292 0
11 3 -6 291 -292 0
11 3 -6 -291 293 0
11 3 -6 -291 -293 0
294 295 297 301 309 0
294 295 297 301 -309 0
294 295 297 -301 310 0
294 295 297 -301 -310 0
294 295 -297 302 311 0
294 295 -297 302 -311 0
294 295 -297 -302 312 0
294 295 -297 -302 -312 0
294 -295 298 303 313 0
294 -295 298 303 -313 0
294 -295 298 -303 314 0
294 -295 298 -303 -314 0
294 -295 -298 304 315 0
294 -295 -298 304 -315 0
294 -295 -298 -304 316 0
294 -295 -298 -304 -316 0
-294 296 299 305 317 0
-294 296 299 305 -317 0
-294 296 299 -305 318 0
-294 296 299 -305 -318 0
-294 296 -299 306 319 0
-294 296 -299 306 -319 0
-294 296 -299 -306 320 0
-294 296 -299 -306 -320 0
-294 -296 300 307 321 0
-294 -296 300 307 -321 0
-294 -296 300 -307 322 0
-294 -296 300 -307 -322 0
-294 -296 -300 308 323 0
-294 -296 -300 308 -323 0
-294 -296 -300 -308 324 0
-294 -296 -300 -308 -324 0
325 326 328 332 340 0
325 326 328 332 -340 0
325 326 328 -332 341 0
325 326 328 -332 -341 0
325 326 -328 333 342 0
325 326 -328 333 -342 0
325 326 -328 -333 343 0
325 326 -328 -333 -343 0
325 -326 329 334 344 0
325 -326 329 334 -344 0
325 -326 329 -334 345 0
325 -326 329 -334 -345 0
325 -326 -329 335 346 0
325 -326 -329 335 -346 0
325 -326 -329 -335 347 0
325 -326 -329 -335 -347 0
-325 327 330 336 348 0
-325 327 330 336 -348 0
-325 327 330 -336 349 0
-325 327 330 -336 -349 0
-325 327 -330 337 350 0
-325 327 -330 337 -350 0
-325 327 -330 -337 351 0
-325 327 -330 -337 -351 0
-325 -327 331 338 352 0
-325 -327 331 338 -352 0
-325 -327 331 -338 353 0
-325 -327 331 -338 -353 0
-325 -327 -331 339 354 0
-325 -327 -331 339 -354 0
-325 -327 -331 -339 355 0
-325 -327 -331 -339 -355 0
356 357 359 363 371 0
356 357 359 363 -371 0
356 357 359 -363 372 0
356 357 359 -363 -372 0
356 357 -359 364 373 0
356 357 -359 364 -373 0
356 357 -359 -364 374 0
356 357 -359 -364 -374 0
356 -357 360 365 375 0
356 -357 360 365 -375 0
356 -357 360 -365 376 0
356 -357 360 -365 -376 0
356 -357 -360 366 377 0
356 -357 -360 366 -377 0
356 -357 -360 -366 378 0
356 -357 -360 -366 -378 0
-356 358 361 367 379 0
-356 358 361 367 -379 0
-356 358 361 -367 380 0
-356 358 361 -367 -380 0
-356 358 -361 368 381 0
-356 358 -361 368 -381 0
-356 358 -361 -368 382 0
-356 358 -361 -368 -382 0
-356 -358 362 369 383 0
-356 -358 362 369 -383 0
-356 -358 362 -369 384 0
-356 -358 362 -369 -384 0
-356 -358 -362 370 385 0
-356 -358 -362 370 -385 0
-356 -358 -362 -370 386 0
-356 -358 -362 -370 -386 0

